\ENCODING=ISO-8859-1
\Problem name: IloCplex

Minimize
 obj1: 12 x2 + 29 x3 + 22 x4 + 13 x5 + 25 x6 + 2 x7 + 19 x9 + 3 x10 + 25 x11
       + 6 x12 + 29 x13 + 19 x14 + 21 x16 + 23 x17 + 28 x18 + 22 x19 + 3 x20
       + 21 x21 + 4 x23 + 5 x24 + 13 x25 + 25 x26 + 23 x27 + 4 x28 + 16 x30
       + 24 x31 + 6 x32 + 25 x33 + 5 x34 + 16 x35 + 6 x36
Subject To
 c1:  x1 + x2 + x3 + x4 + x5 + x6  = 1
 c2:  x7 + x8 + x9 + x10 + x11 + x12  = 1
 c3:  x13 + x14 + x15 + x16 + x17 + x18  = 1
 c4:  x19 + x20 + x21 + x22 + x23 + x24  = 1
 c5:  x25 + x26 + x27 + x28 + x29 + x30  = 1
 c6:  x31 + x32 + x33 + x34 + x35 + x36  = 1
 c7:  x1 + x7 + x13 + x19 + x25 + x31  = 1
 c8:  x2 + x8 + x14 + x20 + x26 + x32  = 1
 c9:  x3 + x9 + x15 + x21 + x27 + x33  = 1
 c10: x4 + x10 + x16 + x22 + x28 + x34  = 1
 c11: x5 + x11 + x17 + x23 + x29 + x35  = 1
 c12: x6 + x12 + x18 + x24 + x30 + x36  = 1
 c13: 6 x8 <= 5
 c14: 6 x14 + x37 - x38 <= 5
 c15: 6 x20 + x37 - x39 <= 5
 c16: 6 x26 + x37 - x40 <= 5
 c17: 6 x32 + x37 - x41 <= 5
 c18: 6 x9 - x37 + x38 <= 5
 c19: 6 x15 <= 5
 c20: 6 x21 + x38 - x39 <= 5
 c21: 6 x27 + x38 - x40 <= 5
 c22: 6 x33 + x38 - x41 <= 5
 c23: 6 x10 - x37 + x39 <= 5
 c24: 6 x16 - x38 + x39 <= 5
 c25: 6 x22 <= 5
 c26: 6 x28 + x39 - x40 <= 5
 c27: 6 x34 + x39 - x41 <= 5
 c28: 6 x11 - x37 + x40 <= 5
 c29: 6 x17 - x38 + x40 <= 5
 c30: 6 x23 - x39 + x40 <= 5
 c31: 6 x29 <= 5
 c32: 6 x35 + x40 - x41 <= 5
 c33: 6 x12 - x37 + x41 <= 5
 c34: 6 x18 - x38 + x41 <= 5
 c35: 6 x24 - x39 + x41 <= 5
 c36: 6 x30 - x40 + x41 <= 5
 c37: 6 x36 <= 5
Bounds
 0 <= x1 <= 1
 0 <= x2 <= 1
 0 <= x3 <= 1
 0 <= x4 <= 1
 0 <= x5 <= 1
 0 <= x6 <= 1
 0 <= x7 <= 1
 0 <= x8 <= 1
 0 <= x9 <= 1
 0 <= x10 <= 1
 0 <= x11 <= 1
 0 <= x12 <= 1
 0 <= x13 <= 1
 0 <= x14 <= 1
 0 <= x15 <= 1
 0 <= x16 <= 1
 0 <= x17 <= 1
 0 <= x18 <= 1
 0 <= x19 <= 1
 0 <= x20 <= 1
 0 <= x21 <= 1
 0 <= x22 <= 1
 0 <= x23 <= 1
 0 <= x24 <= 1
 0 <= x25 <= 1
 0 <= x26 <= 1
 0 <= x27 <= 1
 0 <= x28 <= 1
 0 <= x29 <= 1
 0 <= x30 <= 1
 0 <= x31 <= 1
 0 <= x32 <= 1
 0 <= x33 <= 1
 0 <= x34 <= 1
 0 <= x35 <= 1
 0 <= x36 <= 1
 2 <= x37 <= 6
 2 <= x38 <= 6
 2 <= x39 <= 6
 2 <= x40 <= 6
 2 <= x41 <= 6
Binaries
 x1  x2  x3  x4  x5  x6  x7  x8  x9  x10  x11  x12  x13  x14  x15  x16  x17 
 x18  x19  x20  x21  x22  x23  x24  x25  x26  x27  x28  x29  x30  x31  x32 
 x33  x34  x35  x36 
Generals
 x37  x38  x39  x40  x41 
End
